letting initialStacks = [5, 39, 40, 38, 12, 25, 9, 7, 43, 11, 44, 45, 49, 33, 47, 26, 14, 21, 36, 41, 8, 32, 6, 28, 35, 31, 17, 18, 20, 3, 23, 50, 27, 51, 24, 15, 42, 34, 30, 2, 16, 13, 46, 22, 48, 4, 37, 10, 29, 19, 1]
